\* Problem: Aliment pour betail *\

Minimize
 obj: + Z

Subject To
 C_1: + x_1_3 + x_1_2 + x_1_1 - q_1 = 0
 C_2: + x_2_3 + x_2_2 + x_2_1 - q_2 = 0
 C_3: - 0.095 q_1 + 0.05 x_1_3 + 0.041 x_1_2 + 0.136 x_1_1 >= 0
 C_4: - 0.02 q_1 + 0.003 x_1_3 + 0.024 x_1_2 + 0.071 x_1_1 >= 0
 C_5: - 0.095 q_2 + 0.05 x_2_3 + 0.041 x_2_2 + 0.136 x_2_1 >= 0
 C_6: - 0.02 q_2 + 0.003 x_2_3 + 0.024 x_2_2 + 0.071 x_2_1 >= 0
 C_7: - 0.06 q_1 + 0.25 x_1_3 + 0.037 x_1_2 + 0.07 x_1_1 <= 0
 C_8: - 0.06 q_2 + 0.25 x_2_3 + 0.037 x_2_2 + 0.07 x_2_1 <= 0
 C_9: + x_2_1 + x_1_1 <= 11900
 C_10: + x_2_2 + x_1_2 <= 23500
 C_11: + x_2_3 + x_1_3 <= 750
 C_12: + q_1 >= 9000
 C_13: + q_2 >= 12000
 C_14: - 2.05 x_2_3 - 3.8 x_2_2 - 3.6 x_2_1 - 3.55 x_1_3 - 5.3 x_1_2
 - 5.1 x_1_1 + Z = 0

Generals
 x_1_1
 x_1_2
 x_1_3
 x_2_1
 x_2_2
 x_2_3

End
